37
39
88
0
69
60
70
52
57
65
0
43
34
80
57
49
29
28
0
42
33
42
69
65
0
0
196
61
43
36
70
26
38
108
50
29
58
196
59
105
47
114
30
31
55
71
61
75
50
30
62
84
69
52
86
29
36
89
53
56
0
56
58
58
191
0
93
35
65
36
49
42
41
61
48
46
28
43
28
58
27
0
35
33
30
22
51
52
57
39
76
97
138
0
68
49
46
0
57
30
